Minimize
1
Subject To
0 is not cost dominated by 0        : 1.627906976744186p_alpha + 0p_penaltyDirect + 0p_transfercostCostDominance + 10p_m + 1p_b >= -43
0 is not productivity dominated by 0: 70p_beta + 0p_transfercostProductivityDominance >= 100
0 and 0 are at least maxDist        : p_maxDistance <= 7
0 is not cost dominated by 1        : 19.41176470588235p_alpha + 0p_penaltyDirect + 0p_transfercostCostDominance + 6p_m + 0p_b >= -13
0 is not productivity dominated by 1: 330p_beta + 0p_transfercostProductivityDominance >= 32
0 and 1 are at least maxDist        : p_maxDistance <= 33
1 is not cost dominated by 0        : 0p_alpha + 0p_penaltyDirect + 0p_transfercostCostDominance + 10p_m + 1p_b >= -43
1 is not productivity dominated by 0: 0p_beta + 0p_transfercostProductivityDominance >= 100
1 and 0 are at least maxDist        : p_maxDistance <= 0
1 is not cost dominated by 1        : 15.294117647058824p_alpha + 0p_penaltyDirect + 0p_transfercostCostDominance + 6p_m + 0p_b >= -13
1 is not productivity dominated by 1: 260p_beta + 0p_transfercostProductivityDominance >= 32
1 and 1 are at least maxDist        : p_maxDistance <= 26
2 is not cost dominated by 1        : 0p_alpha + 0p_penaltyDirect + 0p_transfercostCostDominance + -4p_m + -1p_b >= 30
2 is not productivity dominated by 1: 0p_beta + 0p_transfercostProductivityDominance >= -68
2 and 1 are at least maxDist        : p_maxDistance <= 0
3 is not cost dominated by 0        : 1.627906976744186p_alpha + 0p_penaltyDirect + 0p_transfercostCostDominance + 10p_m + 1p_b >= -43
3 is not productivity dominated by 0: 70p_beta + 0p_transfercostProductivityDominance >= 100
3 and 0 are at least maxDist        : p_maxDistance <= 7
3 is not cost dominated by 1        : 0p_alpha + 0p_penaltyDirect + 0p_transfercostCostDominance + 6p_m + 0p_b >= -13
3 is not productivity dominated by 1: 0p_beta + 0p_transfercostProductivityDominance >= 32
3 and 1 are at least maxDist        : p_maxDistance <= 0
4 is not cost dominated by 0        : 0p_alpha + 0p_penaltyDirect + 0p_transfercostCostDominance + 4p_m + 1p_b >= -30
4 is not productivity dominated by 0: 0p_beta + 0p_transfercostProductivityDominance >= 68
4 and 0 are at least maxDist        : p_maxDistance <= 0
5 is not cost dominated by 0        : 0p_alpha + 0p_penaltyDirect + 0p_transfercostCostDominance + 10p_m + 1p_b >= -43
5 is not productivity dominated by 0: 0p_beta + 0p_transfercostProductivityDominance >= 100
5 and 0 are at least maxDist        : p_maxDistance <= 0
5 is not cost dominated by 1        : 0p_alpha + 0p_penaltyDirect + 0p_transfercostCostDominance + 6p_m + 0p_b >= -13
5 is not productivity dominated by 1: 0p_beta + 0p_transfercostProductivityDominance >= 32
5 and 1 are at least maxDist        : p_maxDistance <= 0
6 is not cost dominated by 0        : 2.3255813953488373p_alpha + 0p_penaltyDirect + 0p_transfercostCostDominance + 10p_m + 1p_b >= -43
6 is not productivity dominated by 0: 100p_beta + 0p_transfercostProductivityDominance >= 100
6 and 0 are at least maxDist        : p_maxDistance <= 10
6 is not cost dominated by 1        : 5.882352941176471p_alpha + 0p_penaltyDirect + 0p_transfercostCostDominance + 6p_m + 0p_b >= -13
6 is not productivity dominated by 1: 100p_beta + 0p_transfercostProductivityDominance >= 32
6 and 1 are at least maxDist        : p_maxDistance <= 10
0 is cost dom by 1           : 7p_alpha + 1p_penaltyDirect + 0p_transfercostCostDominance + 0p_m + 0p_b - 9007199254740.99z0_1cost < 0
0 is prod dom by 1           : 70p_beta + 0p_transfercostProductivityDominance -9007199254740.99z0_1prod < 0
0 and 1 are less than maxDist: p_maxDistance > 7 - 9007199254740.99(z0_1cost + z0_1prod)
0 is cost dom by 2           : 30.1p_alpha + 1p_penaltyDirect + 0p_transfercostCostDominance + -10p_m + -1p_b - 9007199254740.99z0_2cost < 43
0 is prod dom by 2           : 0p_beta + 0p_transfercostProductivityDominance -9007199254740.99z0_2prod < -100
0 and 2 are less than maxDist: p_maxDistance > 7 - 9007199254740.99(z0_2cost + z0_2prod)
0 is cost dom by 3           : 33p_alpha + 1p_penaltyDirect + 0p_transfercostCostDominance + 0p_m + 0p_b - 9007199254740.99z0_3cost < 0
0 is prod dom by 3           : 330p_beta + 0p_transfercostProductivityDominance -9007199254740.99z0_3prod < 0
0 and 3 are less than maxDist: p_maxDistance > 33 - 9007199254740.99(z0_3cost + z0_3prod)
0 is cost dom by 4           : 56.1p_alpha + 1p_penaltyDirect + 0p_transfercostCostDominance + -6p_m + 0p_b - 9007199254740.99z0_4cost < 13
0 is prod dom by 4           : 132p_beta + 0p_transfercostProductivityDominance -9007199254740.99z0_4prod < -32
0 and 4 are less than maxDist: p_maxDistance > 33 - 9007199254740.99(z0_4cost + z0_4prod)
0 is cost dom by 5           : 40p_alpha + 1p_penaltyDirect + 0p_transfercostCostDominance + 0p_m + 0p_b - 9007199254740.99z0_5cost < 0
0 is prod dom by 5           : 400p_beta + 0p_transfercostProductivityDominance -9007199254740.99z0_5prod < 0
0 and 5 are less than maxDist: p_maxDistance > 40 - 9007199254740.99(z0_5cost + z0_5prod)
0 is cost dom by 6           : 50p_alpha + 1p_penaltyDirect + 0p_transfercostCostDominance + 0p_m + 0p_b - 9007199254740.99z0_6cost < 0
0 is prod dom by 6           : 500p_beta + 0p_transfercostProductivityDominance -9007199254740.99z0_6prod < 0
0 and 6 are less than maxDist: p_maxDistance > 50 - 9007199254740.99(z0_6cost + z0_6prod)
at least one dominator: z0_1cost + z0_1prod + z0_2cost + z0_2prod + z0_3cost + z0_3prod + z0_4cost + z0_4prod + z0_5cost + z0_5prod + z0_6cost + z0_6prod>= 1
1 is cost dom by 0           : 7p_alpha + 1p_penaltyDirect + 0p_transfercostCostDominance + 0p_m + 0p_b - 9007199254740.99z1_0cost < 0
1 is prod dom by 0           : 70p_beta + 0p_transfercostProductivityDominance -9007199254740.99z1_0prod < 0
1 and 0 are less than maxDist: p_maxDistance > 7 - 9007199254740.99(z1_0cost + z1_0prod)
1 is cost dom by 2           : 0p_alpha + 1p_penaltyDirect + 0p_transfercostCostDominance + -10p_m + -1p_b - 9007199254740.99z1_2cost < 43
1 is prod dom by 2           : 0p_beta + 0p_transfercostProductivityDominance -9007199254740.99z1_2prod < -100
1 and 2 are less than maxDist: p_maxDistance > 0 - 9007199254740.99(z1_2cost + z1_2prod)
1 is cost dom by 3           : 26p_alpha + 1p_penaltyDirect + 0p_transfercostCostDominance + 0p_m + 0p_b - 9007199254740.99z1_3cost < 0
1 is prod dom by 3           : 260p_beta + 0p_transfercostProductivityDominance -9007199254740.99z1_3prod < 0
1 and 3 are less than maxDist: p_maxDistance > 26 - 9007199254740.99(z1_3cost + z1_3prod)
1 is cost dom by 4           : 44.2p_alpha + 1p_penaltyDirect + 0p_transfercostCostDominance + -6p_m + 0p_b - 9007199254740.99z1_4cost < 13
1 is prod dom by 4           : 104p_beta + 0p_transfercostProductivityDominance -9007199254740.99z1_4prod < -32
1 and 4 are less than maxDist: p_maxDistance > 26 - 9007199254740.99(z1_4cost + z1_4prod)
1 is cost dom by 5           : 33p_alpha + 1p_penaltyDirect + 0p_transfercostCostDominance + 0p_m + 0p_b - 9007199254740.99z1_5cost < 0
1 is prod dom by 5           : 330p_beta + 0p_transfercostProductivityDominance -9007199254740.99z1_5prod < 0
1 and 5 are less than maxDist: p_maxDistance > 33 - 9007199254740.99(z1_5cost + z1_5prod)
1 is cost dom by 6           : 43p_alpha + 1p_penaltyDirect + 0p_transfercostCostDominance + 0p_m + 0p_b - 9007199254740.99z1_6cost < 0
1 is prod dom by 6           : 430p_beta + 0p_transfercostProductivityDominance -9007199254740.99z1_6prod < 0
1 and 6 are less than maxDist: p_maxDistance > 43 - 9007199254740.99(z1_6cost + z1_6prod)
at least one dominator: z1_0cost + z1_0prod + z1_2cost + z1_2prod + z1_3cost + z1_3prod + z1_4cost + z1_4prod + z1_5cost + z1_5prod + z1_6cost + z1_6prod>= 1
at least one dominator: >= 1
3 is cost dom by 0           : 33p_alpha + 1p_penaltyDirect + 0p_transfercostCostDominance + 0p_m + 0p_b - 9007199254740.99z3_0cost < 0
3 is prod dom by 0           : 330p_beta + 0p_transfercostProductivityDominance -9007199254740.99z3_0prod < 0
3 and 0 are less than maxDist: p_maxDistance > 33 - 9007199254740.99(z3_0cost + z3_0prod)
3 is cost dom by 1           : 26p_alpha + 1p_penaltyDirect + 0p_transfercostCostDominance + 0p_m + 0p_b - 9007199254740.99z3_1cost < 0
3 is prod dom by 1           : 260p_beta + 0p_transfercostProductivityDominance -9007199254740.99z3_1prod < 0
3 and 1 are less than maxDist: p_maxDistance > 26 - 9007199254740.99(z3_1cost + z3_1prod)
3 is cost dom by 2           : 30.1p_alpha + 1p_penaltyDirect + 0p_transfercostCostDominance + -10p_m + -1p_b - 9007199254740.99z3_2cost < 43
3 is prod dom by 2           : 0p_beta + 0p_transfercostProductivityDominance -9007199254740.99z3_2prod < -100
3 and 2 are less than maxDist: p_maxDistance > 7 - 9007199254740.99(z3_2cost + z3_2prod)
3 is cost dom by 4           : 0p_alpha + 1p_penaltyDirect + 0p_transfercostCostDominance + -6p_m + 0p_b - 9007199254740.99z3_4cost < 13
3 is prod dom by 4           : 0p_beta + 0p_transfercostProductivityDominance -9007199254740.99z3_4prod < -32
3 and 4 are less than maxDist: p_maxDistance > 0 - 9007199254740.99(z3_4cost + z3_4prod)
3 is cost dom by 5           : 7p_alpha + 1p_penaltyDirect + 0p_transfercostCostDominance + 0p_m + 0p_b - 9007199254740.99z3_5cost < 0
3 is prod dom by 5           : 70p_beta + 0p_transfercostProductivityDominance -9007199254740.99z3_5prod < 0
3 and 5 are less than maxDist: p_maxDistance > 7 - 9007199254740.99(z3_5cost + z3_5prod)
3 is cost dom by 6           : 17p_alpha + 1p_penaltyDirect + 0p_transfercostCostDominance + 0p_m + 0p_b - 9007199254740.99z3_6cost < 0
3 is prod dom by 6           : 170p_beta + 0p_transfercostProductivityDominance -9007199254740.99z3_6prod < 0
3 and 6 are less than maxDist: p_maxDistance > 17 - 9007199254740.99(z3_6cost + z3_6prod)
at least one dominator: z3_0cost + z3_0prod + z3_1cost + z3_1prod + z3_2cost + z3_2prod + z3_4cost + z3_4prod + z3_5cost + z3_5prod + z3_6cost + z3_6prod>= 1
at least one dominator: >= 1
5 is cost dom by 0           : 40p_alpha + 1p_penaltyDirect + 0p_transfercostCostDominance + 0p_m + 0p_b - 9007199254740.99z5_0cost < 0
5 is prod dom by 0           : 400p_beta + 0p_transfercostProductivityDominance -9007199254740.99z5_0prod < 0
5 and 0 are less than maxDist: p_maxDistance > 40 - 9007199254740.99(z5_0cost + z5_0prod)
5 is cost dom by 1           : 33p_alpha + 1p_penaltyDirect + 0p_transfercostCostDominance + 0p_m + 0p_b - 9007199254740.99z5_1cost < 0
5 is prod dom by 1           : 330p_beta + 0p_transfercostProductivityDominance -9007199254740.99z5_1prod < 0
5 and 1 are less than maxDist: p_maxDistance > 33 - 9007199254740.99(z5_1cost + z5_1prod)
5 is cost dom by 2           : 0p_alpha + 1p_penaltyDirect + 0p_transfercostCostDominance + -10p_m + -1p_b - 9007199254740.99z5_2cost < 43
5 is prod dom by 2           : 0p_beta + 0p_transfercostProductivityDominance -9007199254740.99z5_2prod < -100
5 and 2 are less than maxDist: p_maxDistance > 0 - 9007199254740.99(z5_2cost + z5_2prod)
5 is cost dom by 3           : 7p_alpha + 1p_penaltyDirect + 0p_transfercostCostDominance + 0p_m + 0p_b - 9007199254740.99z5_3cost < 0
5 is prod dom by 3           : 70p_beta + 0p_transfercostProductivityDominance -9007199254740.99z5_3prod < 0
5 and 3 are less than maxDist: p_maxDistance > 7 - 9007199254740.99(z5_3cost + z5_3prod)
5 is cost dom by 4           : 0p_alpha + 1p_penaltyDirect + 0p_transfercostCostDominance + -6p_m + 0p_b - 9007199254740.99z5_4cost < 13
5 is prod dom by 4           : 0p_beta + 0p_transfercostProductivityDominance -9007199254740.99z5_4prod < -32
5 and 4 are less than maxDist: p_maxDistance > 0 - 9007199254740.99(z5_4cost + z5_4prod)
5 is cost dom by 6           : 10p_alpha + 1p_penaltyDirect + 0p_transfercostCostDominance + 0p_m + 0p_b - 9007199254740.99z5_6cost < 0
5 is prod dom by 6           : 100p_beta + 0p_transfercostProductivityDominance -9007199254740.99z5_6prod < 0
5 and 6 are less than maxDist: p_maxDistance > 10 - 9007199254740.99(z5_6cost + z5_6prod)
at least one dominator: z5_0cost + z5_0prod + z5_1cost + z5_1prod + z5_2cost + z5_2prod + z5_3cost + z5_3prod + z5_4cost + z5_4prod + z5_6cost + z5_6prod>= 1
6 is cost dom by 0           : 50p_alpha + 1p_penaltyDirect + 0p_transfercostCostDominance + 0p_m + 0p_b - 9007199254740.99z6_0cost < 0
6 is prod dom by 0           : 500p_beta + 0p_transfercostProductivityDominance -9007199254740.99z6_0prod < 0
6 and 0 are less than maxDist: p_maxDistance > 50 - 9007199254740.99(z6_0cost + z6_0prod)
6 is cost dom by 1           : 43p_alpha + 1p_penaltyDirect + 0p_transfercostCostDominance + 0p_m + 0p_b - 9007199254740.99z6_1cost < 0
6 is prod dom by 1           : 430p_beta + 0p_transfercostProductivityDominance -9007199254740.99z6_1prod < 0
6 and 1 are less than maxDist: p_maxDistance > 43 - 9007199254740.99(z6_1cost + z6_1prod)
6 is cost dom by 2           : 43p_alpha + 1p_penaltyDirect + 0p_transfercostCostDominance + -10p_m + -1p_b - 9007199254740.99z6_2cost < 43
6 is prod dom by 2           : 0p_beta + 0p_transfercostProductivityDominance -9007199254740.99z6_2prod < -100
6 and 2 are less than maxDist: p_maxDistance > 10 - 9007199254740.99(z6_2cost + z6_2prod)
6 is cost dom by 3           : 17p_alpha + 1p_penaltyDirect + 0p_transfercostCostDominance + 0p_m + 0p_b - 9007199254740.99z6_3cost < 0
6 is prod dom by 3           : 170p_beta + 0p_transfercostProductivityDominance -9007199254740.99z6_3prod < 0
6 and 3 are less than maxDist: p_maxDistance > 17 - 9007199254740.99(z6_3cost + z6_3prod)
6 is cost dom by 4           : 17p_alpha + 1p_penaltyDirect + 0p_transfercostCostDominance + -6p_m + 0p_b - 9007199254740.99z6_4cost < 13
6 is prod dom by 4           : 40p_beta + 0p_transfercostProductivityDominance -9007199254740.99z6_4prod < -32
6 and 4 are less than maxDist: p_maxDistance > 10 - 9007199254740.99(z6_4cost + z6_4prod)
6 is cost dom by 5           : 10p_alpha + 1p_penaltyDirect + 0p_transfercostCostDominance + 0p_m + 0p_b - 9007199254740.99z6_5cost < 0
6 is prod dom by 5           : 100p_beta + 0p_transfercostProductivityDominance -9007199254740.99z6_5prod < 0
6 and 5 are less than maxDist: p_maxDistance > 10 - 9007199254740.99(z6_5cost + z6_5prod)
at least one dominator: z6_0cost + z6_0prod + z6_1cost + z6_1prod + z6_2cost + z6_2prod + z6_3cost + z6_3prod + z6_4cost + z6_4prod + z6_5cost + z6_5prod>= 1
Binary
 z0_1cost
 z0_1prod
 z0_2cost
 z0_2prod
 z0_3cost
 z0_3prod
 z0_4cost
 z0_4prod
 z0_5cost
 z0_5prod
 z0_6cost
 z0_6prod
 z1_0cost
 z1_0prod
 z1_2cost
 z1_2prod
 z1_3cost
 z1_3prod
 z1_4cost
 z1_4prod
 z1_5cost
 z1_5prod
 z1_6cost
 z1_6prod
 z3_0cost
 z3_0prod
 z3_1cost
 z3_1prod
 z3_2cost
 z3_2prod
 z3_4cost
 z3_4prod
 z3_5cost
 z3_5prod
 z3_6cost
 z3_6prod
 z5_0cost
 z5_0prod
 z5_1cost
 z5_1prod
 z5_2cost
 z5_2prod
 z5_3cost
 z5_3prod
 z5_4cost
 z5_4prod
 z5_6cost
 z5_6prod
 z6_0cost
 z6_0prod
 z6_1cost
 z6_1prod
 z6_2cost
 z6_2prod
 z6_3cost
 z6_3prod
 z6_4cost
 z6_4prod
 z6_5cost
 z6_5prod
End
